12 24 9 10
13 2 16 9 18 19 8 17 16 17 3 15 15 7 13 6 8 10 1 10 14 12 14 20 
15.71 15.9 9.21 8.63 12.36 13.23 15.3 12.23 1.02 4.51 2.37 7.05 8.9 12.28 8.25 14.78 3.69 5.54 0.46 4.53 6.18 10.03 3.11 14.19 
11.34 15.84 15.5 5.27 4.42 4.88 11.55 11.2 12.07 6.72 6.44 12 13.37 11.83 5.1 8.92 6.38 9.83 2.53 14.51 4.39 2.24 15.29 1.55 
0.72 5.59 3.55 3.16 4.82 14.75 4.91 1.99 12.46 15.88 4.78 1.1 3.69 0.67 9.61 4.14 3.61 9.83 15.77 10.65 9.51 13.58 1.49 5.68 
12.54 15.04 7.1 4.59 4.96 11.53 1.12 10.23 12.05 15.6 5.88 7.43 0.16 13.85 1.43 5.06 3.3 14.42 10.34 2.63 15.39 5.76 1.89 4.87 
3.58 13.94 13.78 6.81 11.71 13.58 7.34 12.74 8.71 10.24 1.49 15.05 13.23 3.19 10.9 10.5 15.1 2.59 5.57 3.82 14.8 0.74 7.51 12.06 
2.37 14.57 12.42 8.27 0.78 10.68 1.34 5.23 5.11 11.16 3.12 6.23 2.78 7.94 12.59 1.74 15.27 7.21 15.84 6.65 6.85 3.21 15.68 7.22 
3.99 0.54 2.39 15.12 13.1 10.08 8.84 9.36 13.47 2.16 3.89 12.76 2.12 5.86 0.62 12.83 10.28 13.48 14.91 14.66 9.86 11.19 10.6 14.87 
11.15 2.45 11.62 1.59 12.94 14.88 14.71 5.39 14.33 3.22 14.42 13.67 12.46 4.39 5.39 5.11 12.64 2.6 6.27 6.87 9.37 13.65 2.18 13.53 
10.45 9.94 4.16 1.43 2.08 0.03 7.14 15.07 9.84 10.26 13.32 15.43 13.99 4.6 2.55 7.47 8.32 10.92 4.31 10.08 13.37 1.44 6.9 15.43 
8 8 8 8 8 8 8 8 8 8 8 8 8 8 8 8 8 8 8 8 8 8 8 8 
1.68 5.55 0.01 5.08 5.85 15.06 2.5 1.9 6.64 12.39 14.66 5.91 8.93 13.14 12.95 3.3 15.06 14.17 13.87 1.76 13.3 1.04 9.05 1.78 
14.25 14.52 2.3 6.53 1.79 14.37 3.97 0.71 13.27 4.11 6.76 2.97 2.64 13.73 15.8 1.24 10.74 6 13.88 11.4 5.02 8.8 10.44 14.74 
1 1 1 1 1 1 1 1 1 1 1 1 1 1 1 1 1 1 1 1 1 1 1 1 
1 1 1 1 1 1 1 1 1 1 1 1 1 1 1 1 1 1 1 1 1 1 1 1 
1 1 1 1 1 1 1 1 1 1 1 1 1 1 1 1 1 1 1 1 1 1 1 1 
1 1 1 1 1 1 1 1 1 1 1 1 1 1 1 1 1 1 1 1 1 1 1 1 
1 1 1 1 1 1 1 1 1 1 1 1 1 1 1 1 1 1 1 1 1 1 1 1 
1 1 1 1 1 1 1 1 1 1 1 1 1 1 1 1 1 1 1 1 1 1 1 1 
1 1 1 1 1 1 1 1 1 1 1 1 1 1 1 1 1 1 1 1 1 1 1 1 
1 1 1 1 1 1 1 1 1 1 1 1 1 1 1 1 1 1 1 1 1 1 1 1 
1 1 1 1 1 1 1 1 1 1 1 1 1 1 1 1 1 1 1 1 1 1 1 1 
1 1 1 1 1 1 1 1 1 1 1 1 1 1 1 1 1 1 1 1 1 1 1 1 
1 1 1 1 1 1 1 1 1 1 1 1 1 1 1 1 1 1 1 1 1 1 1 1 
1 1 1 1 1 1 1 1 1 1 1 1 1 1 1 1 1 1 1 1 1 1 1 1 
0.01 0.01 0.01 0.01 0.01 0.01 0.01 0.01 0.01 0.01 0.01 0.01 0.01 0.01 0.01 0.01 0.01 0.01 0.01 0.01 0.01 0.01 0.01 0.01 
0.02 0.02 0.02 0.02 0.02 0.02 0.02 0.02 0.02 0.02 0.02 0.02 0.02 0.02 0.02 0.02 0.02 0.02 0.02 0.02 0.02 0.02 0.02 0.02 
0.03 0.03 0.03 0.03 0.03 0.03 0.03 0.03 0.03 0.03 0.03 0.03 0.03 0.03 0.03 0.03 0.03 0.03 0.03 0.03 0.03 0.03 0.03 0.03 
0.04 0.04 0.04 0.04 0.04 0.04 0.04 0.04 0.04 0.04 0.04 0.04 0.04 0.04 0.04 0.04 0.04 0.04 0.04 0.04 0.04 0.04 0.04 0.04 
0.05 0.05 0.05 0.05 0.05 0.05 0.05 0.05 0.05 0.05 0.05 0.05 0.05 0.05 0.05 0.05 0.05 0.05 0.05 0.05 0.05 0.05 0.05 0.05 
0.06 0.06 0.06 0.06 0.06 0.06 0.06 0.06 0.06 0.06 0.06 0.06 0.06 0.06 0.06 0.06 0.06 0.06 0.06 0.06 0.06 0.06 0.06 0.06 
0.07 0.07 0.07 0.07 0.07 0.07 0.07 0.07 0.07 0.07 0.07 0.07 0.07 0.07 0.07 0.07 0.07 0.07 0.07 0.07 0.07 0.07 0.07 0.07 
0.08 0.08 0.08 0.08 0.08 0.08 0.08 0.08 0.08 0.08 0.08 0.08 0.08 0.08 0.08 0.08 0.08 0.08 0.08 0.08 0.08 0.08 0.08 0.08 
0.09 0.09 0.09 0.09 0.09 0.09 0.09 0.09 0.09 0.09 0.09 0.09 0.09 0.09 0.09 0.09 0.09 0.09 0.09 0.09 0.09 0.09 0.09 0.09 
0.1 0.1 0.1 0.1 0.1 0.1 0.1 0.1 0.1 0.1 0.1 0.1 0.1 0.1 0.1 0.1 0.1 0.1 0.1 0.1 0.1 0.1 0.1 0.1 
0.5 0.5 0.5 0.5 0.5 0.5 0.5 0.5 0.5 0.5 0.5 0.5 0.5 0.5 0.5 0.5 0.5 0.5 0.5 0.5 0.5 0.5 0.5 0.5 
1 1 1 1 1 1 1 1 1 1 1 1 1 1 1 1 1 1 1 1 1 1 1 1 
